outputs/case_249.model.txt
article_13_paragraph_1_compliance = True
article_13_paragraph_2_compliance = False
article_24_paragraph_2_compliance = True
article_24_paragraph_3_compliance = False
article_34_paragraph_1_compliance = True
article_34_paragraph_3_compliance = False
article_31_compliance = False
violate_article_12 = True
violate_article_27 = True
principal_guaranteed = False
violate_article_18 = True
minimum_yield_guaranteed = 0
article_15_paragraph_1_compliance = False
violate_article_36_liquidity_ratio = True
violate_article_32_paragraph_1 = True
article_15_paragraph_2_compliance = False
article_59_compliance = False
article_12_compliance = False
violate_article_31 = True
violate_article_15_paragraph_1 = True
article_32_paragraph_1_compliance = False
violate_article_34_paragraph_1_or_3 = True
violate_article_60 = True
article_27_compliance = False
violate_article_40 = True
violate_article_13 = True
prohibit_principal_guarantee = True
violate_article_24_paragraph_2_or_3 = True
article_40_compliance = False
penalty = False
violate_article_59 = True
prohibit_minimum_yield_guarantee = True
violate_article_15_paragraph_2 = True
article_36_liquidity_compliance = False
article_60_compliance = False
article_18_compliance = False